GLPSOL: GLPK LP/MIP Solver, v4.55
Parameter(s) specified in the command line:
 -m tmp.mod
Reading model section from tmp.mod...
Reading data section from tmp.mod...
541 lines were read
Generating obj...
Generating kirhoff...
Generating init_charge...
Generating batt_size...
Model has been successfully generated
GLPK Simplex Optimizer, v4.55
657 rows, 832 columns, 1768 non-zeros
Preprocessing...
407 rows, 798 columns, 1704 non-zeros
Scaling...
 A: min|aij| =  1.000e+00  max|aij| =  1.000e+00  ratio =  1.000e+00
Problem data seem to be well scaled
Constructing initial basis...
Size of triangular part is 347
      0: obj =   0.000000000e+00  infeas =  3.610e+02 (60)
*   170: obj =   3.900000000e+01  infeas =  0.000e+00 (48)
*   212: obj =   1.800000000e+01  infeas =  0.000e+00 (48)
OPTIMAL LP SOLUTION FOUND
Time used:   0.0 secs
Memory used: 1.8 Mb (1847307 bytes)
#OUTPUT:
18
-10 -2 -7 -2 0 0 0 -10 -1 -4 0 -6 -3 0 0 0 -1 -1 0 7 0 -4 -10 0 0 0 -4 0 9 0 0 0 0 0 0 6 0 -7 -2 -3 0 -9 0 0 0 0 0 0 0 0 0 0 0 0 0 0 0 0 0 0 
-10 0 -1 -3 -1 0 5 -5 0 0 0 -2 0 0 -3 -6 0 0 0 0 0 0 0 0 0 -3 0 -6 0 0 0 0 0 0 0 5 0 0 2 -2 0 0 0 0 0 -5 5 0 0 0 0 0 0 0 0 0 0 0 0 0 
-6 0 -6 1 -6 0 5 -3 0 -1 0 -3 0 0 0 0 0 0 0 0 0 0 0 0 0 0 2 -11 0 0 0 0 0 0 -2 2 0 0 1 -3 0 0 0 0 0 -5 5 0 2 0 0 0 0 0 0 0 0 0 0 0 
-11 -2 0 0 0 0 5 -10 -9 6 0 1 -1 0 0 0 2 2 3 0 0 2 0 0 0 0 0 -5 0 2 3 0 5 0 -2 -3 0 0 0 0 0 0 2 0 0 -10 5 0 2 0 0 0 0 0 0 0 0 0 0 0 
-11 -1 -5 0 -5 0 1 -10 0 -6 0 -5 0 0 0 0 0 0 -3 0 -5 -2 0 0 0 0 0 -6 0 0 -3 0 5 0 0 4 0 0 0 0 0 0 -5 -5 0 -6 1 0 0 0 0 0 0 0 0 0 0 0 0 0 
-11 -8 -6 -2 3 0 0 -8 0 -8 0 -6 -3 0 3 0 0 0 3 6 0 6 -9 0 0 3 4 3 1 0 0 0 0 0 0 0 -3 -6 -2 -3 3 -1 0 0 0 0 0 0 0 0 0 0 0 0 0 0 0 0 0 0 
#OUTPUT END
Model has been successfully processed
